data/solutions/recovery/degenerate/intermediate/flexible/degenerate_intermediate_instance23/37.sol
Elapsed time: 100.11
Upper bound: 226887858.0
Planning weighted value: 8.83128845055e+11
C[0]=226887858.0
C[1]=226854115.0
C[2]=226824959.0
C[3]=226799894.0
C[4]=226496161.0
C[5]=226209652.0
C[6]=225953975.0
C[7]=225642676.0
C[8]=224365986.0
C[9]=224003227.0
C[10]=222367397.0
C[11]=0.0
y[0]=3
y[1]=9
y[2]=6
y[3]=8
y[4]=2
y[5]=4
y[6]=10
y[7]=0
y[8]=6
y[9]=9
y[10]=8
y[11]=9
y[12]=3
y[13]=7
y[14]=5
y[15]=3
y[16]=5
y[17]=2
y[18]=8
y[19]=6
y[20]=10
y[21]=10
y[22]=4
y[23]=8
y[24]=9
y[25]=1
y[26]=0
y[27]=2
y[28]=3
y[29]=1
y[30]=10
y[31]=7
y[32]=3
y[33]=2
y[34]=1
y[35]=0
y[36]=6
y[37]=0
y[38]=3
y[39]=1
y[40]=8
y[41]=9
y[42]=4
y[43]=5
y[44]=4
y[45]=7
y[46]=7
y[47]=2
y[48]=8
y[49]=1
y[50]=3
y[51]=7
y[52]=4
y[53]=5
y[54]=6
y[55]=2
y[56]=8
y[57]=1
y[58]=1
y[59]=9
y[60]=6
y[61]=7
y[62]=10
y[63]=5
y[64]=7
y[65]=4
y[66]=2
y[67]=3
y[68]=5
y[69]=10
y[70]=0
y[71]=4
y[72]=9
y[73]=2
y[74]=4
y[75]=6
y[76]=7
y[77]=0
