data/solutions/recovery/degenerate/intermediate/flexible/degenerate_intermediate_instance23/37.log

Log started (V12.6.3.0) Sat Apr 21 15:30:30 2018

New value for default parallel thread count: 1

Problem '/tmp/tmp73OvJ_.pyomo.lp' read.
Read time = 0.01 sec. (0.84 ticks)

Problem name         : /tmp/tmp73OvJ_.pyomo.lp
Objective sense      : Minimize
Variables            :     950  [Nneg: 1,  Binary: 936,  General Integer: 13]
Objective nonzeros   :       1
Linear constraints   :     182  [Less: 90,  Equal: 92]
  Nonzeros           :   60259
  RHS nonzeros       :     157

Variables            : Min LB: 0.000000         Max UB: 1.000000       
Objective nonzeros   : Min   : 1.000000         Max   : 1.000000       
Linear constraints   :
  Nonzeros           : Min   : 1.000000         Max   : 6.145599e+07   
  RHS nonzeros       : Min   : 1.000000         Max   : 8.000000       
Tried aggregator 2 times.
MIP Presolve eliminated 81 rows and 140 columns.
Aggregator did 6 substitutions.
Reduced MIP has 95 rows, 804 columns, and 2237 nonzeros.
Reduced MIP has 792 binaries, 12 generals, 0 SOSs, and 0 indicators.
Presolve time = 0.01 sec. (10.91 ticks)
Found incumbent of value 8.1098438e+08 after 0.01 sec. (12.44 ticks)
Probing time = 0.00 sec. (1.59 ticks)
Tried aggregator 1 time.
Reduced MIP has 95 rows, 804 columns, and 2237 nonzeros.
Reduced MIP has 792 binaries, 12 generals, 0 SOSs, and 0 indicators.
Presolve time = 0.00 sec. (1.14 ticks)
Probing time = 0.00 sec. (1.59 ticks)
Clique table members: 72.
MIP emphasis: balance optimality and feasibility.
MIP search method: dynamic search.
Parallel mode: none, using 1 thread.
Root relaxation solution time = 0.00 sec. (1.55 ticks)

        Nodes                                         Cuts/
   Node  Left     Objective  IInf  Best Integer    Best Bound    ItCnt     Gap

*     0+    0                       8.10984e+08        0.0000           100.00%
      0     0   2.25673e+08    28   8.10984e+08   2.25673e+08      141   72.17%
      0     0   2.25673e+08    41   8.10984e+08      Fract: 6      163   72.17%
*     0+    0                       2.54496e+08   2.25673e+08            11.33%
*     0+    0                       2.50082e+08   2.25673e+08             9.76%
*     0+    0                       2.47860e+08   2.25673e+08             8.95%
*     0+    0                       2.45624e+08   2.25673e+08             8.12%
*     0+    0                       2.43600e+08   2.25673e+08             7.36%
*     0+    0                       2.40841e+08   2.25673e+08             6.30%
      0     2   2.25673e+08    31   2.40841e+08   2.25673e+08      163    6.30%
Elapsed time = 0.04 sec. (49.42 ticks, tree = 0.01 MB, solutions = 7)
*   498+  390                       2.35736e+08   2.25673e+08             4.27%
*   499+  389                       2.35078e+08   2.25673e+08             4.00%
*   499+  386                       2.33662e+08   2.25673e+08             3.42%
    500   389   2.25673e+08    30   2.33662e+08   2.25673e+08     3558    3.42%
*   501+  258                       2.31875e+08   2.25673e+08             2.67%
*   501+  172                       2.30238e+08   2.25673e+08             1.98%
    501   173   2.25673e+08    20   2.30238e+08   2.25673e+08     3978    1.98%
    502   174   2.25673e+08    22   2.30238e+08   2.25673e+08     3980    1.98%
    503   175   2.25673e+08    23   2.30238e+08   2.25673e+08     3990    1.98%
    504   175   2.25673e+08    20   2.30238e+08   2.25673e+08     3994    1.98%
    505   176   2.25673e+08    23   2.30238e+08   2.25673e+08     4001    1.98%
    506   177   2.25673e+08    21   2.30238e+08   2.25673e+08     4002    1.98%
    507   178   2.25673e+08    22   2.30238e+08   2.25673e+08     4004    1.98%
    508   178   2.25673e+08    21   2.30238e+08   2.25673e+08     4008    1.98%
*   601+  150                       2.29599e+08   2.25673e+08             1.71%
*   601+  124                       2.29536e+08   2.25673e+08             1.68%
*   901+  177                       2.28816e+08   2.25673e+08             1.37%
    901   179   2.27307e+08    16   2.28816e+08   2.25673e+08     5373    1.37%
Elapsed time = 0.86 sec. (1032.27 ticks, tree = 0.10 MB, solutions = 15)
*  1001+  210                       2.28438e+08   2.25673e+08             1.21%
*  1101+  269                       2.28323e+08   2.25673e+08             1.16%
*  1101+  269                       2.28252e+08   2.25673e+08             1.13%
*  1101+  269                       2.28068e+08   2.25673e+08             1.05%
   2206   923        cutoff         2.28068e+08   2.25673e+08     9491    1.05%
   2207   922        cutoff         2.28068e+08   2.25673e+08     9511    1.05%
   2208   921        cutoff         2.28068e+08   2.25673e+08     9518    1.05%
   2209   922   2.25673e+08    19   2.28068e+08   2.25673e+08     9524    1.05%
   2210   923   2.25673e+08    20   2.28068e+08   2.25673e+08     9527    1.05%
   2211   924   2.25673e+08    20   2.28068e+08   2.25673e+08     9529    1.05%
   2212   925   2.25673e+08    20   2.28068e+08   2.25673e+08     9538    1.05%
   2213   926   2.25673e+08    20   2.28068e+08   2.25673e+08     9541    1.05%
   2214   927   2.25673e+08    20   2.28068e+08   2.25673e+08     9543    1.05%
   2215   928   2.25673e+08    21   2.28068e+08   2.25673e+08     9544    1.05%
Elapsed time = 1.65 sec. (1989.21 ticks, tree = 0.53 MB, solutions = 19)
   5043  2239   2.27470e+08    25   2.28068e+08   2.25673e+08    32180    1.05%
   5044  2238        cutoff         2.28068e+08   2.25673e+08    32200    1.05%
   5045  2239   2.27158e+08    21   2.28068e+08   2.25673e+08    32413    1.05%
   5046  2238        cutoff         2.28068e+08   2.25673e+08    32495    1.05%
   5047  2237    infeasible         2.28068e+08   2.25673e+08    32495    1.05%
   5048  2236        cutoff         2.28068e+08   2.25673e+08    32523    1.05%
   5049  2235        cutoff         2.28068e+08   2.25673e+08    32540    1.05%
   5050  2236   2.25673e+08    22   2.28068e+08   2.25673e+08    32555    1.05%
   5051  2237   2.25673e+08    21   2.28068e+08   2.25673e+08    32559    1.05%
   5052  2238   2.25673e+08    22   2.28068e+08   2.25673e+08    32561    1.05%
Elapsed time = 2.39 sec. (2957.82 ticks, tree = 1.34 MB, solutions = 19)
   6841  3146   2.25673e+08    24   2.28068e+08   2.25673e+08    57558    1.05%
   6842  3147   2.25673e+08    27   2.28068e+08   2.25673e+08    57565    1.05%
   6843  3148   2.25673e+08    24   2.28068e+08   2.25673e+08    57566    1.05%
   6844  3149   2.25673e+08    28   2.28068e+08   2.25673e+08    57572    1.05%
   6845  3150   2.25673e+08    32   2.28068e+08   2.25673e+08    57577    1.05%
   6846  3151   2.25673e+08    30   2.28068e+08   2.25673e+08    57579    1.05%
   6847  3152   2.25673e+08    25   2.28068e+08   2.25673e+08    57583    1.05%
   6848  3153   2.25673e+08    27   2.28068e+08   2.25673e+08    57586    1.05%
   6849  3154   2.25673e+08    23   2.28068e+08   2.25673e+08    57603    1.05%
   6850  3155   2.25673e+08    29   2.28068e+08   2.25673e+08    57631    1.05%
Elapsed time = 3.12 sec. (3915.01 ticks, tree = 1.85 MB, solutions = 19)
   8074  3543   2.25673e+08    42   2.28068e+08   2.25673e+08    85288    1.05%
   8075  3544   2.25673e+08    45   2.28068e+08   2.25673e+08    85302    1.05%
   8076  3545   2.25673e+08    45   2.28068e+08   2.25673e+08    85303    1.05%
   8077  3546   2.25673e+08    44   2.28068e+08   2.25673e+08    85304    1.05%
   8078  3547   2.25673e+08    41   2.28068e+08   2.25673e+08    85307    1.05%
   8079  3548   2.25673e+08    41   2.28068e+08   2.25673e+08    85310    1.05%
   8080  3549   2.25673e+08    41   2.28068e+08   2.25673e+08    85318    1.05%
   8081  3550   2.25673e+08    36   2.28068e+08   2.25673e+08    85348    1.05%
   8082  3551   2.25673e+08    29   2.28068e+08   2.25673e+08    85359    1.05%
   8083  3552   2.25673e+08    28   2.28068e+08   2.25673e+08    85362    1.05%
Elapsed time = 3.81 sec. (4877.24 ticks, tree = 2.07 MB, solutions = 19)
* 10461+ 5395                       2.27362e+08   2.25673e+08             0.74%
* 10461+ 4931                       2.26888e+08   2.25673e+08             0.54%
  10461  4930   2.27032e+08    25   2.26888e+08   2.25673e+08    99846    0.54%
  10462  4931   2.25673e+08    17   2.26888e+08   2.25673e+08    99849    0.54%
  10463  4930   2.26751e+08    27   2.26888e+08   2.25673e+08    99903    0.54%
  10464  4931   2.25673e+08    15   2.26888e+08   2.25673e+08    99906    0.54%
  10465  4932   2.25673e+08    20   2.26888e+08   2.25673e+08    99941    0.54%
  10466  4933   2.25673e+08    18   2.26888e+08   2.25673e+08    99943    0.54%
  10467  4934   2.25673e+08    20   2.26888e+08   2.25673e+08    99951    0.54%
  10468  4935   2.25673e+08    18   2.26888e+08   2.25673e+08    99952    0.54%
  10469  4936   2.25673e+08    20   2.26888e+08   2.25673e+08    99959    0.54%
  10470  4937   2.25673e+08    20   2.26888e+08   2.25673e+08    99961    0.54%
Elapsed time = 4.80 sec. (6079.74 ticks, tree = 3.02 MB, solutions = 21)
  13417  7368   2.25673e+08    24   2.26888e+08   2.25673e+08   127695    0.54%
  13418  7369   2.25673e+08    22   2.26888e+08   2.25673e+08   127696    0.54%
  13419  7370   2.25673e+08    22   2.26888e+08   2.25673e+08   127697    0.54%
  13420  7371   2.25673e+08    21   2.26888e+08   2.25673e+08   127701    0.54%
  13421  7372   2.25673e+08    20   2.26888e+08   2.25673e+08   127703    0.54%
  13422  7373   2.25673e+08    19   2.26888e+08   2.25673e+08   127706    0.54%
  13423  7374   2.25673e+08    19   2.26888e+08   2.25673e+08   127707    0.54%
  13424  7375   2.25673e+08    25   2.26888e+08   2.25673e+08   127736    0.54%
  13425  7376   2.25673e+08    25   2.26888e+08   2.25673e+08   127741    0.54%
  13426  7377   2.25673e+08    26   2.26888e+08   2.25673e+08   127743    0.54%
Elapsed time = 5.51 sec. (7035.36 ticks, tree = 4.55 MB, solutions = 21)
  16533 10142   2.25673e+08    20   2.26888e+08   2.25673e+08   156788    0.54%
  16534 10143   2.25673e+08    22   2.26888e+08   2.25673e+08   156808    0.54%
  16535 10144   2.25673e+08    26   2.26888e+08   2.25673e+08   156817    0.54%
  16536 10145   2.25673e+08    24   2.26888e+08   2.25673e+08   156820    0.54%
  16537 10146   2.25673e+08    23   2.26888e+08   2.25673e+08   156828    0.54%
  16538 10147   2.25673e+08    23   2.26888e+08   2.25673e+08   156863    0.54%
  16539 10148   2.25673e+08    20   2.26888e+08   2.25673e+08   156876    0.54%
  16540 10149   2.25673e+08    18   2.26888e+08   2.25673e+08   156883    0.54%
  16541 10150   2.25673e+08    18   2.26888e+08   2.25673e+08   156884    0.54%
  16542 10151   2.25673e+08    18   2.26888e+08   2.25673e+08   156887    0.54%
Elapsed time = 6.21 sec. (7991.65 ticks, tree = 6.49 MB, solutions = 21)
  19793 12908   2.25715e+08    31   2.26888e+08   2.25673e+08   188285    0.54%
  19794 12909   2.25715e+08    26   2.26888e+08   2.25673e+08   188295    0.54%
  19795 12910   2.25715e+08    28   2.26888e+08   2.25673e+08   188298    0.54%
  19796 12911   2.25715e+08    26   2.26888e+08   2.25673e+08   188303    0.54%
  19797 12912   2.25715e+08    26   2.26888e+08   2.25673e+08   188304    0.54%
  19798 12913   2.26184e+08    23   2.26888e+08   2.25673e+08   188326    0.54%
  19799 12914   2.26184e+08    23   2.26888e+08   2.25673e+08   188328    0.54%
  19800 12915   2.26184e+08    24   2.26888e+08   2.25673e+08   188330    0.54%
  19801 12916   2.26184e+08    23   2.26888e+08   2.25673e+08   188332    0.54%
  19802 12917   2.26184e+08    22   2.26888e+08   2.25673e+08   188335    0.54%
Elapsed time = 6.93 sec. (8947.27 ticks, tree = 8.23 MB, solutions = 21)
  22115 14584   2.26145e+08    26   2.26888e+08   2.25673e+08   219452    0.54%
  22116 14585   2.26145e+08    27   2.26888e+08   2.25673e+08   219458    0.54%
  22117 14586   2.26145e+08    28   2.26888e+08   2.25673e+08   219462    0.54%
  22118 14585        cutoff         2.26888e+08   2.25673e+08   219515    0.54%
  22119 14586   2.26145e+08    28   2.26888e+08   2.25673e+08   219516    0.54%
  22120 14587   2.26145e+08    28   2.26888e+08   2.25673e+08   219517    0.54%
  22121 14588   2.26145e+08    29   2.26888e+08   2.25673e+08   219523    0.54%
  22122 14589   2.26145e+08    30   2.26888e+08   2.25673e+08   219526    0.54%
  22123 14590   2.26145e+08    28   2.26888e+08   2.25673e+08   219527    0.54%
  28749 19665   2.25673e+08    26   2.26888e+08   2.25673e+08   312728    0.54%
Elapsed time = 9.74 sec. (12762.56 ticks, tree = 12.91 MB, solutions = 21)
  35905 25092   2.25673e+08    24   2.26888e+08   2.25673e+08   429807    0.54%
  35906 25093   2.25673e+08    22   2.26888e+08   2.25673e+08   429820    0.54%
  35907 25094   2.25673e+08    22   2.26888e+08   2.25673e+08   429822    0.54%
  35908 25095   2.25673e+08    23   2.26888e+08   2.25673e+08   429842    0.54%
  35909 25096   2.25673e+08    25   2.26888e+08   2.25673e+08   429914    0.54%
  35910 25097   2.25673e+08    25   2.26888e+08   2.25673e+08   429929    0.54%
  35911 25098   2.25673e+08    22   2.26888e+08   2.25673e+08   429971    0.54%
  35912 25099   2.25673e+08    22   2.26888e+08   2.25673e+08   429979    0.54%
  35913 25100   2.25673e+08    20   2.26888e+08   2.25673e+08   429980    0.54%
  35914 25101   2.25673e+08    25   2.26888e+08   2.25673e+08   429982    0.54%
Elapsed time = 12.56 sec. (16581.10 ticks, tree = 16.35 MB, solutions = 21)
  41755 29277   2.25673e+08    29   2.26888e+08   2.25673e+08   535714    0.54%
  41756 29278   2.25673e+08    27   2.26888e+08   2.25673e+08   535715    0.54%
  41757 29279   2.25673e+08    22   2.26888e+08   2.25673e+08   535745    0.54%
  41758 29280   2.25673e+08    24   2.26888e+08   2.25673e+08   535750    0.54%
  41759 29281   2.25673e+08    24   2.26888e+08   2.25673e+08   535762    0.54%
  41760 29282   2.25673e+08    24   2.26888e+08   2.25673e+08   535765    0.54%
  41761 29283   2.25673e+08    23   2.26888e+08   2.25673e+08   535794    0.54%
  41762 29284   2.25673e+08    26   2.26888e+08   2.25673e+08   535806    0.54%
  41763 29285   2.25673e+08    26   2.26888e+08   2.25673e+08   535809    0.54%
  41764 29286   2.25673e+08    30   2.26888e+08   2.25673e+08   535813    0.54%
Elapsed time = 15.33 sec. (20398.66 ticks, tree = 19.05 MB, solutions = 21)
  47072 33564   2.25673e+08    20   2.26888e+08   2.25673e+08   633090    0.54%
  47073 33565   2.25673e+08    20   2.26888e+08   2.25673e+08   633091    0.54%
  47074 33566   2.25673e+08    24   2.26888e+08   2.25673e+08   633095    0.54%
  47075 33567   2.25673e+08    25   2.26888e+08   2.25673e+08   633097    0.54%
  47076 33568   2.25673e+08    25   2.26888e+08   2.25673e+08   633098    0.54%
  47077 33569   2.25673e+08    25   2.26888e+08   2.25673e+08   633102    0.54%
  47078 33570   2.25673e+08    28   2.26888e+08   2.25673e+08   633114    0.54%
  47079 33571   2.25673e+08    24   2.26888e+08   2.25673e+08   633124    0.54%
  47080 33572   2.25673e+08    22   2.26888e+08   2.25673e+08   633125    0.54%
  47081 33573   2.25673e+08    25   2.26888e+08   2.25673e+08   633130    0.54%
Elapsed time = 18.12 sec. (24217.67 ticks, tree = 22.76 MB, solutions = 21)
  52324 37283    infeasible         2.26888e+08   2.25673e+08   739373    0.54%
  52325 37282        cutoff         2.26888e+08   2.25673e+08   739428    0.54%
  52326 37283   2.25673e+08    27   2.26888e+08   2.25673e+08   739466    0.54%
  52327 37284   2.25673e+08    22   2.26888e+08   2.25673e+08   739469    0.54%
  52328 37285   2.25673e+08    18   2.26888e+08   2.25673e+08   739476    0.54%
  52329 37286   2.25673e+08    19   2.26888e+08   2.25673e+08   739477    0.54%
  52330 37287   2.25673e+08    20   2.26888e+08   2.25673e+08   739481    0.54%
  52331 37288   2.25673e+08    19   2.26888e+08   2.25673e+08   739484    0.54%
  52332 37289   2.25673e+08    17   2.26888e+08   2.25673e+08   739489    0.54%
  52333 37290   2.25673e+08    18   2.26888e+08   2.25673e+08   739494    0.54%
Elapsed time = 21.03 sec. (28039.78 ticks, tree = 25.26 MB, solutions = 21)
  56853 40350        cutoff         2.26888e+08   2.25673e+08   834866    0.54%
  56854 40349        cutoff         2.26888e+08   2.25673e+08   834891    0.54%
  56855 40350   2.25673e+08    25   2.26888e+08   2.25673e+08   834980    0.54%
  56856 40351   2.25673e+08    21   2.26888e+08   2.25673e+08   835008    0.54%
  56857 40352   2.25673e+08    21   2.26888e+08   2.25673e+08   835015    0.54%
  56858 40353   2.25673e+08    21   2.26888e+08   2.25673e+08   835023    0.54%
  56859 40354   2.25673e+08    23   2.26888e+08   2.25673e+08   835044    0.54%
  56860 40355   2.25673e+08    23   2.26888e+08   2.25673e+08   835092    0.54%
  56861 40356   2.25673e+08    24   2.26888e+08   2.25673e+08   835120    0.54%
  56862 40357   2.25673e+08    24   2.26888e+08   2.25673e+08   835127    0.54%
Elapsed time = 24.72 sec. (31862.47 ticks, tree = 27.33 MB, solutions = 21)
  60657 42971        cutoff         2.26888e+08   2.25673e+08   934460    0.54%
  60658 42970    infeasible         2.26888e+08   2.25673e+08   934494    0.54%
  60659 42969        cutoff         2.26888e+08   2.25673e+08   934508    0.54%
  60660 42970   2.25673e+08    36   2.26888e+08   2.25673e+08   934628    0.54%
  60661 42971   2.25673e+08    34   2.26888e+08   2.25673e+08   934637    0.54%
  60662 42972   2.25673e+08    32   2.26888e+08   2.25673e+08   934642    0.54%
  60663 42973   2.25673e+08    31   2.26888e+08   2.25673e+08   934677    0.54%
  60664 42974   2.25935e+08    39   2.26888e+08   2.25673e+08   934701    0.54%
  60665 42973        cutoff         2.26888e+08   2.25673e+08   934807    0.54%
  60666 42974   2.25935e+08    39   2.26888e+08   2.25673e+08   934820    0.54%
Elapsed time = 28.37 sec. (35696.13 ticks, tree = 29.06 MB, solutions = 21)
  65475 46648   2.25673e+08    34   2.26888e+08   2.25673e+08  1028852    0.54%
  65476 46649   2.25673e+08    33   2.26888e+08   2.25673e+08  1028854    0.54%
  65477 46650   2.25673e+08    33   2.26888e+08   2.25673e+08  1028855    0.54%
  65478 46651   2.25673e+08    29   2.26888e+08   2.25673e+08  1028920    0.54%
  65479 46652   2.25673e+08    31   2.26888e+08   2.25673e+08  1028928    0.54%
  65480 46651        cutoff         2.26888e+08   2.25673e+08  1028945    0.54%
  65481 46652   2.25673e+08    25   2.26888e+08   2.25673e+08  1028959    0.54%
  65482 46653   2.25673e+08    26   2.26888e+08   2.25673e+08  1028995    0.54%
  65483 46654   2.25673e+08    25   2.26888e+08   2.25673e+08  1029038    0.54%
  65484 46655   2.25673e+08    24   2.26888e+08   2.25673e+08  1029040    0.54%
Elapsed time = 31.93 sec. (39517.72 ticks, tree = 31.45 MB, solutions = 21)
  70345 50326   2.26630e+08    31   2.26888e+08   2.25673e+08  1123940    0.54%
  70346 50325   2.26630e+08    31   2.26888e+08   2.25673e+08  1123942    0.54%
  70347 50324    infeasible         2.26888e+08   2.25673e+08  1123942    0.54%
  70348 50323        cutoff         2.26888e+08   2.25673e+08  1123980    0.54%
  70349 50324   2.26208e+08    40   2.26888e+08   2.25673e+08  1124269    0.54%
  70350 50323    infeasible         2.26888e+08   2.25673e+08  1124326    0.54%
  70351 50322        cutoff         2.26888e+08   2.25673e+08  1124436    0.54%
  70352 50321    infeasible         2.26888e+08   2.25673e+08  1124495    0.54%
  70353 50320        cutoff         2.26888e+08   2.25673e+08  1124528    0.54%
  70354 50319    infeasible         2.26888e+08   2.25673e+08  1124621    0.54%
Elapsed time = 35.50 sec. (43354.88 ticks, tree = 33.83 MB, solutions = 21)
  74683 53094   2.25673e+08    21   2.26888e+08   2.25673e+08  1222398    0.54%
  74684 53094   2.25980e+08    27   2.26888e+08   2.25673e+08  1222543    0.54%
  74685 53094   2.25980e+08    27   2.26888e+08   2.25673e+08  1222548    0.54%
  74686 53095   2.25980e+08    29   2.26888e+08   2.25673e+08  1222552    0.54%
  74687 53096   2.25980e+08    28   2.26888e+08   2.25673e+08  1222562    0.54%
  74688 53097   2.26540e+08    24   2.26888e+08   2.25673e+08  1222598    0.54%
  74689 53096        cutoff         2.26888e+08   2.25673e+08  1222616    0.54%
  74690 53095        cutoff         2.26888e+08   2.25673e+08  1222621    0.54%
  74691 53094    infeasible         2.26888e+08   2.25673e+08  1222621    0.54%
  74692 53095   2.25760e+08    32   2.26888e+08   2.25673e+08  1222712    0.54%
Elapsed time = 39.10 sec. (47178.32 ticks, tree = 35.65 MB, solutions = 21)
  79390 56369   2.26283e+08    28   2.26888e+08   2.25673e+08  1316793    0.54%
  79391 56368        cutoff         2.26888e+08   2.25673e+08  1316804    0.54%
  79392 56367        cutoff         2.26888e+08   2.25673e+08  1316807    0.54%
  79393 56366    infeasible         2.26888e+08   2.25673e+08  1316807    0.54%
  79394 56365    infeasible         2.26888e+08   2.25673e+08  1316807    0.54%
  79395 56366   2.25673e+08    28   2.26888e+08   2.25673e+08  1316843    0.54%
  79396 56367   2.25673e+08    26   2.26888e+08   2.25673e+08  1316861    0.54%
  79397 56368   2.25673e+08    26   2.26888e+08   2.25673e+08  1316863    0.54%
  79398 56369   2.25673e+08    27   2.26888e+08   2.25673e+08  1316869    0.54%
  79399 56370   2.25673e+08    27   2.26888e+08   2.25673e+08  1316872    0.54%
Elapsed time = 42.65 sec. (51002.22 ticks, tree = 37.84 MB, solutions = 21)
  84231 59401   2.25673e+08    29   2.26888e+08   2.25673e+08  1418229    0.54%
  84232 59402   2.25673e+08    24   2.26888e+08   2.25673e+08  1418254    0.54%
  84233 59403   2.25673e+08    28   2.26888e+08   2.25673e+08  1418286    0.54%
  84234 59404   2.25673e+08    27   2.26888e+08   2.25673e+08  1418294    0.54%
  84235 59405   2.25673e+08    29   2.26888e+08   2.25673e+08  1418311    0.54%
  84236 59406   2.25673e+08    22   2.26888e+08   2.25673e+08  1418355    0.54%
  84237 59407   2.25673e+08    20   2.26888e+08   2.25673e+08  1418386    0.54%
  84238 59408   2.25673e+08    26   2.26888e+08   2.25673e+08  1418463    0.54%
  84239 59409   2.25673e+08    25   2.26888e+08   2.25673e+08  1418473    0.54%
  84240 59410   2.25673e+08    23   2.26888e+08   2.25673e+08  1418474    0.54%
Elapsed time = 46.23 sec. (54825.36 ticks, tree = 39.81 MB, solutions = 21)
  89649 63326   2.25673e+08    23   2.26888e+08   2.25673e+08  1510540    0.54%
  89650 63327   2.25673e+08    28   2.26888e+08   2.25673e+08  1510557    0.54%
  89651 63328   2.25673e+08    25   2.26888e+08   2.25673e+08  1510571    0.54%
  89652 63329   2.25673e+08    23   2.26888e+08   2.25673e+08  1510573    0.54%
  89653 63330   2.25673e+08    24   2.26888e+08   2.25673e+08  1510575    0.54%
  89654 63331   2.25673e+08    25   2.26888e+08   2.25673e+08  1510578    0.54%
  89655 63332   2.25673e+08    24   2.26888e+08   2.25673e+08  1510584    0.54%
  89656 63333   2.25673e+08    23   2.26888e+08   2.25673e+08  1510587    0.54%
  89657 63334   2.25673e+08    22   2.26888e+08   2.25673e+08  1510590    0.54%
  89658 63335   2.25673e+08    20   2.26888e+08   2.25673e+08  1510591    0.54%
Elapsed time = 49.83 sec. (58643.82 ticks, tree = 42.38 MB, solutions = 21)
  95744 67812        cutoff         2.26888e+08   2.25673e+08  1602537    0.54%
  95745 67813   2.25803e+08    29   2.26888e+08   2.25673e+08  1602552    0.54%
  95746 67814   2.25803e+08    29   2.26888e+08   2.25673e+08  1602556    0.54%
  95747 67815   2.25803e+08    31   2.26888e+08   2.25673e+08  1602564    0.54%
  95748 67816   2.25803e+08    30   2.26888e+08   2.25673e+08  1602567    0.54%
  95749 67817   2.25803e+08    32   2.26888e+08   2.25673e+08  1602597    0.54%
  95750 67818   2.25803e+08    32   2.26888e+08   2.25673e+08  1602606    0.54%
  95751 67819   2.25803e+08    31   2.26888e+08   2.25673e+08  1602607    0.54%
  95752 67820   2.25803e+08    31   2.26888e+08   2.25673e+08  1602625    0.54%
  95753 67821   2.25803e+08    32   2.26888e+08   2.25673e+08  1602638    0.54%
Elapsed time = 53.29 sec. (62464.42 ticks, tree = 47.28 MB, solutions = 21)
 100901 71297   2.25888e+08    38   2.26888e+08   2.25673e+08  1698783    0.54%
 100902 71298   2.26203e+08    33   2.26888e+08   2.25673e+08  1698798    0.54%
 100903 71299   2.26203e+08    33   2.26888e+08   2.25673e+08  1698809    0.54%
 100904 71300   2.26203e+08    32   2.26888e+08   2.25673e+08  1698813    0.54%
 100905 71301   2.26203e+08    34   2.26888e+08   2.25673e+08  1698828    0.54%
 100906 71301   2.26843e+08    28   2.26888e+08   2.25673e+08  1698871    0.54%
 100907 71301   2.26843e+08    28   2.26888e+08   2.25673e+08  1698872    0.54%
 100908 71300        cutoff         2.26888e+08   2.25673e+08  1698874    0.54%
 100909 71301   2.25701e+08    39   2.26888e+08   2.25673e+08  1699147    0.54%
 100910 71302   2.25701e+08    36   2.26888e+08   2.25673e+08  1699176    0.54%
Elapsed time = 57.03 sec. (66333.26 ticks, tree = 49.60 MB, solutions = 21)
 105341 74552   2.25673e+08    27   2.26888e+08   2.25673e+08  1800457    0.54%
 105342 74553   2.25673e+08    24   2.26888e+08   2.25673e+08  1800474    0.54%
 105343 74554   2.25673e+08    23   2.26888e+08   2.25673e+08  1800495    0.54%
 105344 74555   2.25673e+08    21   2.26888e+08   2.25673e+08  1800504    0.54%
 105345 74556   2.25673e+08    24   2.26888e+08   2.25673e+08  1800509    0.54%
 105346 74556   2.25892e+08    27   2.26888e+08   2.25673e+08  1800527    0.54%
 105347 74557   2.25892e+08    27   2.26888e+08   2.25673e+08  1800528    0.54%
 105348 74558   2.25892e+08    27   2.26888e+08   2.25673e+08  1800529    0.54%
 105349 74559   2.25892e+08    27   2.26888e+08   2.25673e+08  1800531    0.54%
 105350 74560   2.25892e+08    26   2.26888e+08   2.25673e+08  1800539    0.54%
Elapsed time = 60.74 sec. (70151.85 ticks, tree = 51.68 MB, solutions = 21)
 110248 78137        cutoff         2.26888e+08   2.25673e+08  1896647    0.54%
 110249 78136        cutoff         2.26888e+08   2.25673e+08  1896680    0.54%
 110250 78135        cutoff         2.26888e+08   2.25673e+08  1896699    0.54%
 110251 78134        cutoff         2.26888e+08   2.25673e+08  1896762    0.54%
 110252 78133        cutoff         2.26888e+08   2.25673e+08  1896807    0.54%
 110253 78134   2.25686e+08    31   2.26888e+08   2.25673e+08  1896863    0.54%
 110254 78134   2.25698e+08    31   2.26888e+08   2.25673e+08  1896866    0.54%
 110255 78135   2.25711e+08    31   2.26888e+08   2.25673e+08  1896878    0.54%
 110256 78135   2.26238e+08    32   2.26888e+08   2.25673e+08  1896914    0.54%
 110257 78134    infeasible         2.26888e+08   2.25673e+08  1896914    0.54%
Elapsed time = 64.29 sec. (73978.20 ticks, tree = 54.02 MB, solutions = 21)
 115818 82046   2.25673e+08    27   2.26888e+08   2.25673e+08  1994306    0.54%
 115819 82047   2.25673e+08    27   2.26888e+08   2.25673e+08  1994309    0.54%
 115820 82048   2.25673e+08    26   2.26888e+08   2.25673e+08  1994313    0.54%
 115821 82049   2.25673e+08    23   2.26888e+08   2.25673e+08  1994318    0.54%
 115822 82050   2.25820e+08    33   2.26888e+08   2.25673e+08  1994443    0.54%
 115823 82051   2.25820e+08    39   2.26888e+08   2.25673e+08  1994451    0.54%
 115824 82052   2.25820e+08    39   2.26888e+08   2.25673e+08  1994452    0.54%
 115825 82053   2.25820e+08    39   2.26888e+08   2.25673e+08  1994454    0.54%
 115826 82054   2.25820e+08    39   2.26888e+08   2.25673e+08  1994458    0.54%
 115827 82055   2.25820e+08    39   2.26888e+08   2.25673e+08  1994459    0.54%
Elapsed time = 67.77 sec. (77799.20 ticks, tree = 56.70 MB, solutions = 21)
 121071 85516   2.26161e+08    28   2.26888e+08   2.25673e+08  2094159    0.54%
 121072 85516   2.26161e+08    28   2.26888e+08   2.25673e+08  2094160    0.54%
 121073 85516   2.26275e+08    28   2.26888e+08   2.25673e+08  2094163    0.54%
 121074 85517   2.26284e+08    29   2.26888e+08   2.25673e+08  2094164    0.54%
 121075 85518   2.26294e+08    28   2.26888e+08   2.25673e+08  2094165    0.54%
 121076 85518   2.26373e+08    29   2.26888e+08   2.25673e+08  2094166    0.54%
 121077 85518   2.26484e+08    30   2.26888e+08   2.25673e+08  2094174    0.54%
 121078 85517        cutoff         2.26888e+08   2.25673e+08  2094175    0.54%
 121079 85518   2.25673e+08    19   2.26888e+08   2.25673e+08  2094232    0.54%
 121080 85519   2.25673e+08    19   2.26888e+08   2.25673e+08  2094244    0.54%
Elapsed time = 71.32 sec. (81617.40 ticks, tree = 59.04 MB, solutions = 21)
 125676 88379   2.25673e+08    24   2.26888e+08   2.25673e+08  2188727    0.54%
 125677 88380   2.25673e+08    24   2.26888e+08   2.25673e+08  2188728    0.54%
 125678 88381   2.25673e+08    24   2.26888e+08   2.25673e+08  2188771    0.54%
 125679 88382   2.25673e+08    26   2.26888e+08   2.25673e+08  2188781    0.54%
 125680 88383   2.25673e+08    22   2.26888e+08   2.25673e+08  2188800    0.54%
 125681 88384   2.25673e+08    27   2.26888e+08   2.25673e+08  2188830    0.54%
 125682 88385   2.25673e+08    28   2.26888e+08   2.25673e+08  2188832    0.54%
 125683 88386   2.25673e+08    27   2.26888e+08   2.25673e+08  2188833    0.54%
 125684 88387   2.25673e+08    18   2.26888e+08   2.25673e+08  2188865    0.54%
 125685 88388   2.25673e+08    19   2.26888e+08   2.25673e+08  2188887    0.54%
Elapsed time = 74.91 sec. (85437.99 ticks, tree = 60.93 MB, solutions = 21)
 129865 90643        cutoff         2.26888e+08   2.25673e+08  2295002    0.54%
 129866 90642        cutoff         2.26888e+08   2.25673e+08  2295014    0.54%
 129867 90643   2.25673e+08    16   2.26888e+08   2.25673e+08  2295033    0.54%
 129868 90644   2.25673e+08    18   2.26888e+08   2.25673e+08  2295073    0.54%
 129869 90645   2.25673e+08    15   2.26888e+08   2.25673e+08  2295077    0.54%
 129870 90644        cutoff         2.26888e+08   2.25673e+08  2295110    0.54%
 129871 90643   2.25996e+08    27   2.26888e+08   2.25673e+08  2295207    0.54%
 129872 90644   2.25673e+08    14   2.26888e+08   2.25673e+08  2295243    0.54%
 129873 90645   2.25673e+08    15   2.26888e+08   2.25673e+08  2295271    0.54%
 129874 90646   2.25673e+08    15   2.26888e+08   2.25673e+08  2295273    0.54%
Elapsed time = 78.56 sec. (89263.09 ticks, tree = 62.40 MB, solutions = 21)
 133810 92247   2.26329e+08    30   2.26888e+08   2.25673e+08  2396074    0.54%
 133811 92246        cutoff         2.26888e+08   2.25673e+08  2396075    0.54%
 133812 92247   2.25673e+08    25   2.26888e+08   2.25673e+08  2396139    0.54%
 133813 92247   2.25763e+08    35   2.26888e+08   2.25673e+08  2396236    0.54%
 133814 92246        cutoff         2.26888e+08   2.25673e+08  2396247    0.54%
 133815 92247   2.25673e+08    19   2.26888e+08   2.25673e+08  2396317    0.54%
 133816 92248   2.25673e+08    20   2.26888e+08   2.25673e+08  2396321    0.54%
 133817 92249   2.25673e+08    20   2.26888e+08   2.25673e+08  2396323    0.54%
 133818 92250   2.25673e+08    18   2.26888e+08   2.25673e+08  2396352    0.54%
 133819 92251   2.25673e+08    17   2.26888e+08   2.25673e+08  2396353    0.54%
Elapsed time = 82.48 sec. (93093.63 ticks, tree = 63.46 MB, solutions = 21)
 137914 93862   2.25673e+08    25   2.26888e+08   2.25673e+08  2499022    0.54%
 137915 93863   2.25673e+08    23   2.26888e+08   2.25673e+08  2499044    0.54%
 137916 93864   2.25673e+08    26   2.26888e+08   2.25673e+08  2499103    0.54%
 137917 93865   2.25673e+08    24   2.26888e+08   2.25673e+08  2499112    0.54%
 137918 93866   2.25673e+08    23   2.26888e+08   2.25673e+08  2499138    0.54%
 137919 93865    infeasible         2.26888e+08   2.25673e+08  2499223    0.54%
 137920 93866   2.25673e+08    22   2.26888e+08   2.25673e+08  2499253    0.54%
 137921 93867   2.25673e+08    21   2.26888e+08   2.25673e+08  2499332    0.54%
 137922 93868   2.25673e+08    21   2.26888e+08   2.25673e+08  2499347    0.54%
 137923 93869   2.25673e+08    19   2.26888e+08   2.25673e+08  2499357    0.54%
Elapsed time = 86.20 sec. (96918.13 ticks, tree = 64.53 MB, solutions = 21)
 142602 96587        cutoff         2.26888e+08   2.25673e+08  2598899    0.54%
 142603 96588   2.25673e+08    19   2.26888e+08   2.25673e+08  2598908    0.54%
 142604 96589   2.25673e+08    20   2.26888e+08   2.25673e+08  2598921    0.54%
 142605 96590   2.25673e+08    20   2.26888e+08   2.25673e+08  2598922    0.54%
 142606 96591   2.25673e+08    19   2.26888e+08   2.25673e+08  2598923    0.54%
 142607 96592   2.25673e+08    23   2.26888e+08   2.25673e+08  2598979    0.54%
 142608 96593   2.25673e+08    22   2.26888e+08   2.25673e+08  2598985    0.54%
 142609 96594   2.25673e+08    18   2.26888e+08   2.25673e+08  2598994    0.54%
 142610 96593        cutoff         2.26888e+08   2.25673e+08  2599024    0.54%
 142611 96594   2.25673e+08    18   2.26888e+08   2.25673e+08  2599033    0.54%
Elapsed time = 89.70 sec. (100738.98 ticks, tree = 66.30 MB, solutions = 21)
 145673 97937   2.26019e+08    14   2.26888e+08   2.25673e+08  2669389    0.54%
 145674 97938   2.26019e+08    17   2.26888e+08   2.25673e+08  2669395    0.54%
 145675 97937    infeasible         2.26888e+08   2.25673e+08  2669395    0.54%
 145676 97938   2.26019e+08    17   2.26888e+08   2.25673e+08  2669399    0.54%
 145677 97939   2.26019e+08    17   2.26888e+08   2.25673e+08  2669402    0.54%
 145678 97940   2.26019e+08    18   2.26888e+08   2.25673e+08  2669409    0.54%
 145679 97941   2.26019e+08    17   2.26888e+08   2.25673e+08  2669414    0.54%
 145680 97942   2.26019e+08    20   2.26888e+08   2.25673e+08  2669422    0.54%
 145681 97941    infeasible         2.26888e+08   2.25673e+08  2669491    0.54%
 145682 97942   2.26377e+08    25   2.26888e+08   2.25673e+08  2669557    0.54%
Elapsed time = 93.08 sec. (104559.72 ticks, tree = 67.19 MB, solutions = 21)
 148697 99157   2.25831e+08    36   2.26888e+08   2.25673e+08  2733764    0.54%
 148698 99158   2.25831e+08    33   2.26888e+08   2.25673e+08  2733780    0.54%
 148699 99159   2.25831e+08    33   2.26888e+08   2.25673e+08  2733784    0.54%
 148700 99160   2.25831e+08    34   2.26888e+08   2.25673e+08  2733801    0.54%
 148701 99160   2.25831e+08    34   2.26888e+08   2.25673e+08  2733814    0.54%
 148702 99161   2.25831e+08    34   2.26888e+08   2.25673e+08  2733817    0.54%
 148703 99162   2.26301e+08    31   2.26888e+08   2.25673e+08  2733844    0.54%
 148704 99163   2.26305e+08    32   2.26888e+08   2.25673e+08  2733854    0.54%
 148705 99164   2.26318e+08    32   2.26888e+08   2.25673e+08  2733860    0.54%
 148706 99164   2.26372e+08    32   2.26888e+08   2.25673e+08  2733862    0.54%
Elapsed time = 96.40 sec. (108379.13 ticks, tree = 68.01 MB, solutions = 21)
 153140 101486   2.25786e+08    43   2.26888e+08   2.25673e+08  2833794    0.54%
 153141 101487   2.25791e+08    41   2.26888e+08   2.25673e+08  2833796    0.54%
 153142 101488   2.25856e+08    41   2.26888e+08   2.25673e+08  2833811    0.54%
 153143 101489   2.26077e+08    42   2.26888e+08   2.25673e+08  2833881    0.54%
 153144 101488        cutoff         2.26888e+08   2.25673e+08  2833890    0.54%
 153145 101487        cutoff         2.26888e+08   2.25673e+08  2833905    0.54%
 153146 101487   2.26261e+08    27   2.26888e+08   2.25673e+08  2834024    0.54%
 153147 101486        cutoff         2.26888e+08   2.25673e+08  2834028    0.54%
 153148 101485    infeasible         2.26888e+08   2.25673e+08  2834131    0.54%
 153149 101484        cutoff         2.26888e+08   2.25673e+08  2834166    0.54%
Elapsed time = 99.98 sec. (112206.61 ticks, tree = 69.55 MB, solutions = 21)

GUB cover cuts applied:  1
Cover cuts applied:  471
Mixed integer rounding cuts applied:  4
Gomory fractional cuts applied:  1

Root node processing (before b&c):
  Real time             =    0.04 sec. (49.53 ticks)
Sequential b&c:
  Real time             =   99.96 sec. (112219.84 ticks)
                          ------------
Total (root+branch&cut) =  100.00 sec. (112269.37 ticks)

Solution pool: 21 solutions saved.

MIP - Time limit exceeded, integer feasible:  Objective =  2.2688785800e+08
Current MIP best bound =  2.2567326400e+08 (gap = 1.21459e+06, 0.54%)
Solution time =  100.00 sec.  Iterations = 2834589  Nodes = 153158 (101483)
Deterministic time = 112269.37 ticks  (1122.69 ticks/sec)


Incumbent solution written to file '/tmp/tmpxGtNI7.cplex.sol'.
